3
4
20
1 1.3 1.55 1.75 2.1
48 38 42 47 16 18 14 8 33 5 31 47 10 43 7 24 30 21 34 27 45 36 47 41 44 8 11 13 37 48 48 16 23 14 48 31 45 28 46 42 40 38 15 38 22 9 34 16 18 27 29 28 30 31 49 37 19 34 8 15 47 35 17 39 10 44 13 18 21 24 18 15 19 41 22 48 41 27 25 44 